scheduleLength  = 7;
numberEmployees = 163;
numberShifts    = 3;
minDaysOff      = 1;
maxDaysOff      = 4;
minDaysWork     = 3;
maxDaysWork     = 6;
shiftNames      = ["D", "A", "N"];
minDaysShift    = [2, 2, 2];
maxDaysShift    = [6, 6, 5];

requirements = [| 72, 79, 80, 78, 82, 76, 74,
                | 39, 40, 44, 43, 43, 38, 40,
                | 5, 6, 5, 6, 6, 6, 5 |];

numberForbiddenShifts2 = 3;
forbiddenShifts2 = [| 3, 1,
                    | 3, 2,
                    | 2, 1 |];

numberForbiddenShifts3 = 4;
forbiddenShifts3 = [| 2, 1,
                    | 3, 2,
                    | 3, 1,
                    | 3, 3 |];

